data/solutions/recovery/wellformed/moderate/flexible/wellformed_moderate_instance76/4.sol
Elapsed time: 0.03
Upper bound: 1932.0
Planning weighted value: 123730.0
C[0]=1932.0
C[1]=1920.0
C[2]=1849.0
C[3]=1794.0
C[4]=1786.0
C[5]=0.0
y[0]=3
y[1]=4
y[2]=4
y[3]=2
y[4]=1
y[5]=0
y[6]=4
y[7]=2
y[8]=1
y[9]=0
y[10]=2
y[11]=2
y[12]=3
y[13]=4
y[14]=1
y[15]=1
y[16]=0
y[17]=1
y[18]=0
y[19]=3
