data/solutions/recovery/wellformed/moderate/flexible/wellformed_moderate_instance76/4.log

Log started (V12.6.3.0) Fri Apr 20 20:56:39 2018

New value for default parallel thread count: 1

Problem '/tmp/tmpURXhBs.pyomo.lp' read.
Read time = 0.00 sec. (0.03 ticks)

Problem name         : /tmp/tmpURXhBs.pyomo.lp
Objective sense      : Minimize
Variables            :     128  [Nneg: 1,  Binary: 120,  General Integer: 7]
Objective nonzeros   :       1
Linear constraints   :      54  [Less: 26,  Equal: 28]
  Nonzeros           :    1773
  RHS nonzeros       :      41

Variables            : Min LB: 0.000000         Max UB: 1.000000       
Objective nonzeros   : Min   : 1.000000         Max   : 1.000000       
Linear constraints   :
  Nonzeros           : Min   : 1.000000         Max   : 971.0000       
  RHS nonzeros       : Min   : 1.000000         Max   : 2.000000       
Tried aggregator 2 times.
MIP Presolve eliminated 23 rows and 26 columns.
Aggregator did 6 substitutions.
Reduced MIP has 25 rows, 96 columns, and 251 nonzeros.
Reduced MIP has 95 binaries, 1 generals, 0 SOSs, and 0 indicators.
Presolve time = 0.00 sec. (0.70 ticks)
Found incumbent of value 9281.000000 after 0.00 sec. (0.86 ticks)
Probing time = 0.00 sec. (0.08 ticks)
Cover probing fixed 0 vars, tightened 3 bounds.
Tried aggregator 1 time.
Reduced MIP has 25 rows, 96 columns, and 251 nonzeros.
Reduced MIP has 95 binaries, 1 generals, 0 SOSs, and 0 indicators.
Presolve time = 0.00 sec. (0.17 ticks)
Probing time = 0.00 sec. (0.06 ticks)
Clique table members: 19.
MIP emphasis: balance optimality and feasibility.
MIP search method: dynamic search.
Parallel mode: none, using 1 thread.
Root relaxation solution time = 0.00 sec. (0.08 ticks)

        Nodes                                         Cuts/
   Node  Left     Objective  IInf  Best Integer    Best Bound    ItCnt     Gap

*     0+    0                         9281.0000      971.0000            89.54%
      0     0     1856.2000     7     9281.0000     1856.2000        7   80.00%
*     0+    0                         2438.0000     1856.2000            23.86%
      0     0     1857.0000    13     2438.0000      Fract: 6       25   23.83%
*     0+    0                         2019.0000     1857.0000             8.02%
      0     0     1857.0000    20     2019.0000       Cuts: 8       46    8.02%
*     0+    0                         2013.0000     1857.0000             7.75%
      0     0     1860.8992    22     2013.0000       Cuts: 7       81    7.56%
      0     0     1874.0355    20     2013.0000      Cuts: 10      104    6.90%
      0     0     1884.2296    21     2013.0000       Cuts: 9      123    6.40%
      0     0     1891.6395    23     2013.0000       Cuts: 8      132    6.03%
      0     0     1901.2819    24     2013.0000       Cuts: 8      143    5.55%
      0     0     1932.0000    15     2013.0000       Cuts: 5      161    4.02%
*     0+    0                         1990.0000     1932.0000             2.91%
      0     0     1932.0000    11     1990.0000       Cuts: 4      163    2.91%
*     0+    0                         1932.0000     1932.0000             0.00%
      0     0        cutoff           1932.0000     1932.0000      163    0.00%
Elapsed time = 0.01 sec. (8.80 ticks, tree = 0.01 MB, solutions = 6)

Flow cuts applied:  1
Mixed integer rounding cuts applied:  12
Zero-half cuts applied:  5

Root node processing (before b&c):
  Real time             =    0.01 sec. (8.81 ticks)
Sequential b&c:
  Real time             =    0.00 sec. (0.00 ticks)
                          ------------
Total (root+branch&cut) =    0.01 sec. (8.81 ticks)

Solution pool: 6 solutions saved.

MIP - Integer optimal solution:  Objective =  1.9320000000e+03
Solution time =    0.01 sec.  Iterations = 163  Nodes = 0
Deterministic time = 8.81 ticks  (616.27 ticks/sec)


Incumbent solution written to file '/tmp/tmpgdNkpM.cplex.sol'.
